66, 316
59, 801
461, 540
335, 677
339, 799
77, 726
442, 887
331, 593
296, 673
396, 871
227, 746
245, 659
542, 731
217, 908
429, 773
495, 958
337, 826
132, 628
493, 655
393, 573
117, 872
61, 884
295, 787
208, 517
71, 706
387, 880
75, 880
441, 500
475, 522
325, 970
518, 904
526, 590
156, 800
97, 523
497, 940
514, 902
502, 570
467, 870
488, 654
372, 881
509, 872
154, 902
371, 684
515, 813
440, 941
440, 712
406, 738
520, 628
65, 710
86, 988
55, 727
498, 759
343, 507
309, 767
375, 910
118, 537
259, 624
384, 849
356, 831
454, 872
58, 542
184, 567
190, 920
543, 656
484, 617
368, 509
354, 598